NAME : LC2_6_8
TYPE : PDPTW
DIMENSION : 150
EDGE_WEIGHT_TYPE : EXACT_2D
NODE_COORD_SECTION
1 1 0
2 150 0
3 0 0
4 20 1835
5 147 2
6 1731 2371
7 3 122
8 3625 90
9 165 85
10 90 469
11 198 -30
12 151 0
13 -30 719
14 0 7
15 1007 1647
16 8 58
17 2166 90
18 243 35
19 90 0
20 45 -20
21 461 0
22 30 1086
23 125 12
24 935 1575
25 13 279
26 1038 90
27 97 40
28 90 0
29 52 20
30 0 479
31 -10 2908
32 0 17
33 1604 2244
34 18 64
35 1029 90
36 141 231
37 90 0
38 211 -10
39 8 0
40 20 623
41 345 22
42 2950 3590
43 23 66
44 3311 90
45 83 219
46 90 0
47 210 20
48 0 47
49 -10 219
50 0 27
51 865 1505
52 28 165
53 3686 90
54 117 262
55 90 0
56 49 20
57 0 512
58 -10 405
59 0 32
60 2104 2744
61 33 182
62 2837 90
63 239 181
64 90 0
65 114 -20
66 280 0
67 -20 1486
68 0 37
69 81 721
70 38 142
71 1541 90
72 102 51
73 90 0
74 62 -10
75 301 0
76 -20 2740
77 0 42
78 1634 2274
79 43 244
80 2879 0
81 125 23
82 90 0
83 23 -20
84 440 0
85 20 113
86 304 47
87 1553 2193
88 48 262
89 2145 90
90 75 28
91 90 0
92 63 -20
93 436 0
94 20 712
95 459 52
96 203 843
97 53 179
98 3013 90
99 154 257
100 90 434
101 38 -10
102 302 0
103 20 225
104 166 57
105 2909 3549
106 58 28
107 765 90
108 25 150
109 90 0
110 32 -10
111 393 0
112 -20 743
113 0 62
114 2006 2646
115 63 186
116 698 90
117 252 60
118 90 0
119 10 20
120 0 197
121 20 2570
122 307 67
123 418 1058
124 68 101
125 2777 90
126 103 35
127 90 68
128 244 20
129 0 3
130 10 1800
131 22 72
132 2510 3150
133 73 74
134 2536 90
135 222 160
136 90 0
137 163 30
138 0 224
139 -10 2431
140 0 77
141 2329 2969
142 78 17
143 929 90
144 203 200
145 90 0
146 137 10
147 0 88
148 10 701
149 183 82
150 1057 1697
PICKUP_AND_DELIVERY_SECTION
1 0 0 0 0 0 0
2 0 0 0 0 3815 0
3 0 0 0 0 0 248
4 0 0 0 0 90 90
5 0 0 0 0 221 221
6 0 0 0 0 0 0
7 0 0 0 0 -20 -20
8 0 0 0 0 0 0
9 0 0 0 0 2860 2860
10 0 0 0 0 5 0
11 0 0 0 0 1210 1210
12 0 0 0 0 55 55
13 0 0 0 0 90 90
14 0 0 0 0 70 70
15 0 0 0 0 411 411
16 0 0 0 0 10 10
17 0 0 0 0 20 0
18 0 0 0 0 2218 2218
19 0 0 0 0 10 10
20 0 0 0 0 819 819
21 0 0 0 0 30 30
22 0 0 0 0 90 90
23 0 0 0 0 27 27
24 0 0 0 0 0 0
25 0 0 0 0 10 10
26 0 0 0 0 186 0
27 0 0 0 0 274 274
28 0 0 0 0 15 15
29 0 0 0 0 2049 2049
30 0 0 0 0 226 226
31 0 0 0 0 90 90
32 0 0 0 0 21 21
33 0 0 0 0 0 0
34 0 0 0 0 20 20
35 0 0 0 0 536 0
36 0 0 0 0 81 81
37 0 0 0 0 20 20
38 0 0 0 0 3403 3403
39 0 0 0 0 50 50
40 0 0 0 0 90 90
41 0 0 0 0 178 178
42 0 0 0 0 71 71
43 0 0 0 0 -10 -10
44 0 0 0 0 0 0
45 0 0 0 0 96 96
46 0 0 0 0 25 25
47 0 0 0 0 700 700
48 0 0 0 0 173 173
49 0 0 0 0 90 90
50 0 0 0 0 180 180
51 0 0 0 0 184 184
52 0 0 0 0 -30 -30
53 0 0 0 0 0 0
54 0 0 0 0 2049 2049
55 0 0 0 0 30 30
56 0 0 0 0 1878 1878
57 0 0 0 0 176 176
58 0 0 0 0 90 90
59 0 0 0 0 46 46
60 0 0 0 0 0 0
61 0 0 0 0 20 20
62 0 0 0 0 360 0
63 0 0 0 0 94 94
64 0 0 0 0 35 35
65 0 0 0 0 940 940
66 0 0 0 0 34 34
67 0 0 0 0 90 90
68 0 0 0 0 231 231
69 0 0 0 0 0 0
70 0 0 0 0 20 20
71 0 0 0 0 232 0
72 0 0 0 0 110 110
73 0 0 0 0 40 40
74 0 0 0 0 820 820
75 0 0 0 0 261 261
76 0 0 0 0 90 90
77 0 0 0 0 146 146
78 0 0 0 0 0 0
79 0 0 0 0 10 10
80 0 0 0 0 610 0
81 0 0 0 0 2056 2056
82 0 0 0 0 45 45
83 0 0 0 0 3598 3598
84 0 0 0 0 92 92
85 0 0 0 0 90 90
86 0 0 0 0 272 272
87 0 0 0 0 25 25
88 0 0 0 0 -10 -10
89 0 0 0 0 0 0
90 0 0 0 0 1133 1133
91 0 0 0 0 50 50
92 0 0 0 0 3183 3183
93 0 0 0 0 224 224
94 0 0 0 0 90 90
95 0 0 0 0 116 116
96 0 0 0 0 0 0
97 0 0 0 0 -10 -10
98 0 0 0 0 0 0
99 0 0 0 0 1212 1212
100 0 0 0 0 55 0
101 0 0 0 0 2952 2952
102 0 0 0 0 83 83
103 0 0 0 0 90 90
104 0 0 0 0 201 201
105 0 0 0 0 191 191
106 0 0 0 0 30 30
107 0 0 0 0 364 0
108 0 0 0 0 1251 1251
109 0 0 0 0 60 60
110 0 0 0 0 2530 2530
111 0 0 0 0 67 67
112 0 0 0 0 90 90
113 0 0 0 0 50 50
114 0 0 0 0 0 0
115 0 0 0 0 10 10
116 0 0 0 0 261 0
117 0 0 0 0 380 380
118 0 0 0 0 65 65
119 0 0 0 0 2366 2366
120 0 0 0 0 239 239
121 0 0 0 0 90 90
122 0 0 0 0 102 102
123 0 0 0 0 313 313
124 0 0 0 0 30 30
125 0 0 0 0 69 0
126 0 0 0 0 2233 2233
127 0 0 0 0 70 0
128 0 0 0 0 1269 1269
129 0 0 0 0 231 231
130 0 0 0 0 90 90
131 0 0 0 0 114 114
132 0 0 0 0 0 0
133 0 0 0 0 40 40
134 0 0 0 0 503 0
135 0 0 0 0 616 616
136 0 0 0 0 75 75
137 0 0 0 0 3442 3442
138 0 0 0 0 125 125
139 0 0 0 0 90 90
140 0 0 0 0 203 203
141 0 0 0 0 369 369
142 0 0 0 0 -20 -20
143 0 0 0 0 0 0
144 0 0 0 0 303 303
145 0 0 0 0 80 80
146 0 0 0 0 835 835
147 0 0 0 0 263 263
148 0 0 0 0 90 90
149 0 0 0 0 137 137
150 0 0 0 0 0 0
DEPOT_SECTION
1 
-1
EOF
